960173
934901
934901
934901
934901
934901
923219
922955
901560
878331
878331
878331
878331
868357
863951
843956
843956
840128
840128
840128
840128
840128
840128
840128
832031
832031
832031
815176
815176
807943
807943
807943
807943
807943
805237
805237
805237
800093
800093
800093
799315
794960
775420
768446
768446
757758
757758
747925
747925
747925
747925
743573
743573
743573
743573
735406
728742
728742
728742
728742
728742
728742
728742
728742
718300
718300
718300
718300
715938
704202
704202
704202
696231
695810
695810
695810
695810
695810
695810
695810
695810
695810
683227
669368
669368
669368
669368
669368
669368
669368
649656
649656
649656
649656
649656
649656
649656
649656
648744
648744
